100
128
10
44
39
51
5
7
17
2
27
1
41
32
37
54
48
29
3
20
1
9
8
46
11
29
34
1
23
28
57
45
3
4
46
19
51
1
2
51
42
7
47
49
5
51
11
15
11
28
48
53
38
2
2
34
1
61
13
5
32
48
44
49
55
49
5
59
3
45
54
5
50
46
14
7
11
56
2
56
15
52
50
52
36
42
26
32
34
41
33
51
54
44
3
1
30
29
32
47
3
50